; Normalized Portuguese Bank Dataset (numeric features only)
; Min-Max scaled to [-1, 1]
; Numeric column: duration (index 11)

(set-logic QF_AUFLIRA)

(define-fun m () Int 300)
(define-fun n () Int 1)

(declare-const D (Array Int (Array Int Real)))

(define-fun row1 ((x0 Real)) (Array Int Real)
  (store ((as const (Array Int Real)) 0.0) 0 x0)
)

(assert (= (select D 0) (row1 -0.744953)))
(assert (= (select D 1) (row1 -0.853274)))
(assert (= (select D 2) (row1 -0.927129)))
(assert (= (select D 3) (row1 -0.911374)))
(assert (= (select D 4) (row1 -0.806992)))
(assert (= (select D 5) (row1 -0.865091)))
(assert (= (select D 6) (row1 -0.788282)))
(assert (= (select D 7) (row1 -0.627770)))
(assert (= (select D 8) (row1 -0.952733)))
(assert (= (select D 9) (row1 -0.947809)))
(assert (= (select D 10) (row1 -0.783358)))
(assert (= (select D 11) (row1 -0.867061)))
(assert (= (select D 12) (row1 -0.492861)))
(assert (= (select D 13) (row1 -0.932053)))
(assert (= (select D 14) (row1 -0.830625)))
(assert (= (select D 15) (row1 -0.654357)))
(assert (= (select D 16) (row1 -0.905465)))
(assert (= (select D 17) (row1 -0.964549)))
(assert (= (select D 18) (row1 -0.786312)))
(assert (= (select D 19) (row1 -0.948794)))
(assert (= (select D 20) (row1 -0.743968)))
(assert (= (select D 21) (row1 -0.840473)))
(assert (= (select D 22) (row1 -0.844412)))
(assert (= (select D 23) (row1 -0.665190)))
(assert (= (select D 24) (row1 -0.823732)))
(assert (= (select D 25) (row1 -0.832595)))
(assert (= (select D 26) (row1 -0.710487)))
(assert (= (select D 27) (row1 -0.876908)))
(assert (= (select D 28) (row1 -0.750862)))
(assert (= (select D 29) (row1 -0.659281)))
(assert (= (select D 30) (row1 -0.780404)))
(assert (= (select D 31) (row1 -0.775480)))
(assert (= (select D 32) (row1 -0.797144)))
(assert (= (select D 33) (row1 -0.779419)))
(assert (= (select D 34) (row1 -0.671098)))
(assert (= (select D 35) (row1 -0.763663)))
(assert (= (select D 36) (row1 -0.642541)))
(assert (= (select D 37) (row1 0.638602)))
(assert (= (select D 38) (row1 -0.433776)))
(assert (= (select D 39) (row1 -0.867061)))
(assert (= (select D 40) (row1 -0.844412)))
(assert (= (select D 41) (row1 -0.824717)))
(assert (= (select D 42) (row1 -0.980305)))
(assert (= (select D 43) (row1 0.467258)))
(assert (= (select D 44) (row1 -0.395372)))
(assert (= (select D 45) (row1 -0.763663)))
(assert (= (select D 46) (row1 -0.652388)))
(assert (= (select D 47) (row1 -0.780404)))
(assert (= (select D 48) (row1 -0.844412)))
(assert (= (select D 49) (row1 -0.644510)))
(assert (= (select D 50) (row1 -0.740030)))
(assert (= (select D 51) (row1 -0.752831)))
(assert (= (select D 52) (row1 -0.825702)))
(assert (= (select D 53) (row1 -0.226982)))
(assert (= (select D 54) (row1 -0.859183)))
(assert (= (select D 55) (row1 -0.830625)))
(assert (= (select D 56) (row1 -0.899557)))
(assert (= (select D 57) (row1 -0.989168)))
(assert (= (select D 58) (row1 -0.819793)))
(assert (= (select D 59) (row1 0.748892)))
(assert (= (select D 60) (row1 -0.866076)))
(assert (= (select D 61) (row1 -0.202363)))
(assert (= (select D 62) (row1 -0.840473)))
(assert (= (select D 63) (row1 -0.616937)))
(assert (= (select D 64) (row1 -0.650419)))
(assert (= (select D 65) (row1 -0.912358)))
(assert (= (select D 66) (row1 -0.482029)))
(assert (= (select D 67) (row1 -0.733136)))
(assert (= (select D 68) (row1 -0.846381)))
(assert (= (select D 69) (row1 -0.827671)))
(assert (= (select D 70) (row1 -0.747907)))
(assert (= (select D 71) (row1 -0.832595)))
(assert (= (select D 72) (row1 -0.850320)))
(assert (= (select D 73) (row1 -0.715411)))
(assert (= (select D 74) (row1 -0.823732)))
(assert (= (select D 75) (row1 -0.828656)))
(assert (= (select D 76) (row1 -0.794190)))
(assert (= (select D 77) (row1 -0.658296)))
(assert (= (select D 78) (row1 -0.734121)))
(assert (= (select D 79) (row1 -0.797144)))
(assert (= (select D 80) (row1 -0.811915)))
(assert (= (select D 81) (row1 -0.793205)))
(assert (= (select D 82) (row1 -0.982275)))
(assert (= (select D 83) (row1 0.024126)))
(assert (= (select D 84) (row1 -0.759724)))
(assert (= (select D 85) (row1 -0.481044)))
(assert (= (select D 86) (row1 0.442639)))
(assert (= (select D 87) (row1 0.365830)))
(assert (= (select D 88) (row1 -0.816839)))
(assert (= (select D 89) (row1 -0.824717)))
(assert (= (select D 90) (row1 -0.954702)))
(assert (= (select D 91) (row1 -0.792221)))
(assert (= (select D 92) (row1 -0.427868)))
(assert (= (select D 93) (row1 -0.784343)))
(assert (= (select D 94) (row1 -0.831610)))
(assert (= (select D 95) (row1 -0.582472)))
(assert (= (select D 96) (row1 -0.719350)))
(assert (= (select D 97) (row1 -0.902511)))
(assert (= (select D 98) (row1 -0.802068)))
(assert (= (select D 99) (row1 -0.807976)))
(assert (= (select D 100) (row1 -0.748892)))
(assert (= (select D 101) (row1 -0.879862)))
(assert (= (select D 102) (row1 -0.776465)))
(assert (= (select D 103) (row1 -0.947809)))
(assert (= (select D 104) (row1 -0.608075)))
(assert (= (select D 105) (row1 -0.807976)))
(assert (= (select D 106) (row1 -0.814870)))
(assert (= (select D 107) (row1 -0.981290)))
(assert (= (select D 108) (row1 -0.495815)))
(assert (= (select D 109) (row1 -0.165928)))
(assert (= (select D 110) (row1 -0.810931)))
(assert (= (select D 111) (row1 -0.860167)))
(assert (= (select D 112) (row1 -0.793205)))
(assert (= (select D 113) (row1 -0.720335)))
(assert (= (select D 114) (row1 -0.896603)))
(assert (= (select D 115) (row1 -0.758740)))
(assert (= (select D 116) (row1 -0.491876)))
(assert (= (select D 117) (row1 -0.643525)))
(assert (= (select D 118) (row1 -0.826686)))
(assert (= (select D 119) (row1 -0.905465)))
(assert (= (select D 120) (row1 -0.569670)))
(assert (= (select D 121) (row1 -0.924175)))
(assert (= (select D 122) (row1 -0.883801)))
(assert (= (select D 123) (row1 -0.876908)))
(assert (= (select D 124) (row1 -0.829641)))
(assert (= (select D 125) (row1 -0.743968)))
(assert (= (select D 126) (row1 -0.941901)))
(assert (= (select D 127) (row1 -0.925160)))
(assert (= (select D 128) (row1 -0.861152)))
(assert (= (select D 129) (row1 -0.431807)))
(assert (= (select D 130) (row1 -0.335303)))
(assert (= (select D 131) (row1 -0.662235)))
(assert (= (select D 132) (row1 -0.819793)))
(assert (= (select D 133) (row1 -0.903496)))
(assert (= (select D 134) (row1 -0.878877)))
(assert (= (select D 135) (row1 -0.811915)))
(assert (= (select D 136) (row1 -0.868045)))
(assert (= (select D 137) (row1 -0.930084)))
(assert (= (select D 138) (row1 -0.482029)))
(assert (= (select D 139) (row1 -0.469227)))
(assert (= (select D 140) (row1 -0.841457)))
(assert (= (select D 141) (row1 -0.705564)))
(assert (= (select D 142) (row1 -0.956672)))
(assert (= (select D 143) (row1 -0.801083)))
(assert (= (select D 144) (row1 -0.905465)))
(assert (= (select D 145) (row1 -0.932053)))
(assert (= (select D 146) (row1 -0.847366)))
(assert (= (select D 147) (row1 -0.762678)))
(assert (= (select D 148) (row1 -0.818808)))
(assert (= (select D 149) (row1 -0.431807)))
(assert (= (select D 150) (row1 -0.841457)))
(assert (= (select D 151) (row1 -0.401280)))
(assert (= (select D 152) (row1 1.000000)))
(assert (= (select D 153) (row1 -0.918267)))
(assert (= (select D 154) (row1 -0.889710)))
(assert (= (select D 155) (row1 -0.889710)))
(assert (= (select D 156) (row1 -0.945839)))
(assert (= (select D 157) (row1 -0.767602)))
(assert (= (select D 158) (row1 -0.910389)))
(assert (= (select D 159) (row1 -0.875923)))
(assert (= (select D 160) (row1 -0.896603)))
(assert (= (select D 161) (row1 -0.823732)))
(assert (= (select D 162) (row1 -0.703594)))
(assert (= (select D 163) (row1 -0.452486)))
(assert (= (select D 164) (row1 -0.736091)))
(assert (= (select D 165) (row1 -0.777450)))
(assert (= (select D 166) (row1 -0.904481)))
(assert (= (select D 167) (row1 -0.765633)))
(assert (= (select D 168) (row1 -0.339242)))
(assert (= (select D 169) (row1 -0.772526)))
(assert (= (select D 170) (row1 0.037912)))
(assert (= (select D 171) (row1 -0.755785)))
(assert (= (select D 172) (row1 -0.753816)))
(assert (= (select D 173) (row1 -0.866076)))
(assert (= (select D 174) (row1 -0.873954)))
(assert (= (select D 175) (row1 -0.596258)))
(assert (= (select D 176) (row1 -0.825702)))
(assert (= (select D 177) (row1 -0.983259)))
(assert (= (select D 178) (row1 -0.550960)))
(assert (= (select D 179) (row1 -0.295913)))
(assert (= (select D 180) (row1 -0.693747)))
(assert (= (select D 181) (row1 -0.329394)))
(assert (= (select D 182) (row1 0.058592)))
(assert (= (select D 183) (row1 -0.592319)))
(assert (= (select D 184) (row1 -0.858198)))
(assert (= (select D 185) (row1 -0.837518)))
(assert (= (select D 186) (row1 -0.691777)))
(assert (= (select D 187) (row1 -0.864106)))
(assert (= (select D 188) (row1 -0.661251)))
(assert (= (select D 189) (row1 -0.448548)))
(assert (= (select D 190) (row1 -0.832595)))
(assert (= (select D 191) (row1 -0.788282)))
(assert (= (select D 192) (row1 -0.862137)))
(assert (= (select D 193) (row1 -0.935992)))
(assert (= (select D 194) (row1 -0.715411)))
(assert (= (select D 195) (row1 -0.697686)))
(assert (= (select D 196) (row1 -0.757755)))
(assert (= (select D 197) (row1 -0.905465)))
(assert (= (select D 198) (row1 -0.749877)))
(assert (= (select D 199) (row1 -0.921221)))
(assert (= (select D 200) (row1 -0.433776)))
(assert (= (select D 201) (row1 -0.720335)))
(assert (= (select D 202) (row1 -0.532250)))
(assert (= (select D 203) (row1 -0.400295)))
(assert (= (select D 204) (row1 -0.538159)))
(assert (= (select D 205) (row1 -0.626785)))
(assert (= (select D 206) (row1 -0.960611)))
(assert (= (select D 207) (row1 -0.754801)))
(assert (= (select D 208) (row1 -0.600197)))
(assert (= (select D 209) (row1 -0.790251)))
(assert (= (select D 210) (row1 -0.719350)))
(assert (= (select D 211) (row1 -0.789266)))
(assert (= (select D 212) (row1 -0.641556)))
(assert (= (select D 213) (row1 -0.795175)))
(assert (= (select D 214) (row1 -0.718365)))
(assert (= (select D 215) (row1 -0.836534)))
(assert (= (select D 216) (row1 -0.669129)))
(assert (= (select D 217) (row1 -0.598227)))
(assert (= (select D 218) (row1 -0.827671)))
(assert (= (select D 219) (row1 -0.876908)))
(assert (= (select D 220) (row1 -0.650419)))
(assert (= (select D 221) (row1 -0.829641)))
(assert (= (select D 222) (row1 -0.706548)))
(assert (= (select D 223) (row1 -0.868045)))
(assert (= (select D 224) (row1 0.395372)))
(assert (= (select D 225) (row1 -0.878877)))
(assert (= (select D 226) (row1 -0.792221)))
(assert (= (select D 227) (row1 -0.975382)))
(assert (= (select D 228) (row1 -0.767602)))
(assert (= (select D 229) (row1 -0.879862)))
(assert (= (select D 230) (row1 -0.984244)))
(assert (= (select D 231) (row1 -0.283112)))
(assert (= (select D 232) (row1 -0.267356)))
(assert (= (select D 233) (row1 -0.882816)))
(assert (= (select D 234) (row1 -0.758740)))
(assert (= (select D 235) (row1 -0.962580)))
(assert (= (select D 236) (row1 -0.823732)))
(assert (= (select D 237) (row1 -0.924175)))
(assert (= (select D 238) (row1 -0.799114)))
(assert (= (select D 239) (row1 -0.618907)))
(assert (= (select D 240) (row1 -0.876908)))
(assert (= (select D 241) (row1 -0.310684)))
(assert (= (select D 242) (row1 -0.853274)))
(assert (= (select D 243) (row1 -0.886755)))
(assert (= (select D 244) (row1 -0.773511)))
(assert (= (select D 245) (row1 -0.600197)))
(assert (= (select D 246) (row1 -0.825702)))
(assert (= (select D 247) (row1 -0.963565)))
(assert (= (select D 248) (row1 -0.724274)))
(assert (= (select D 249) (row1 -0.298868)))
(assert (= (select D 250) (row1 -0.952733)))
(assert (= (select D 251) (row1 -0.823732)))
(assert (= (select D 252) (row1 -0.862137)))
(assert (= (select D 253) (row1 -0.778434)))
(assert (= (select D 254) (row1 -0.884786)))
(assert (= (select D 255) (row1 -0.646480)))
(assert (= (select D 256) (row1 -0.930084)))
(assert (= (select D 257) (row1 -0.935992)))
(assert (= (select D 258) (row1 -0.657312)))
(assert (= (select D 259) (row1 -0.675037)))
(assert (= (select D 260) (row1 -0.400295)))
(assert (= (select D 261) (row1 -0.890694)))
(assert (= (select D 262) (row1 -0.871984)))
(assert (= (select D 263) (row1 -0.944855)))
(assert (= (select D 264) (row1 -0.853274)))
(assert (= (select D 265) (row1 -0.914328)))
(assert (= (select D 266) (row1 -0.852290)))
(assert (= (select D 267) (row1 -0.400295)))
(assert (= (select D 268) (row1 -0.893648)))
(assert (= (select D 269) (row1 -0.546036)))
(assert (= (select D 270) (row1 -0.448548)))
(assert (= (select D 271) (row1 -0.054653)))
(assert (= (select D 272) (row1 -0.992122)))
(assert (= (select D 273) (row1 -0.885771)))
(assert (= (select D 274) (row1 -0.911374)))
(assert (= (select D 275) (row1 -0.861152)))
(assert (= (select D 276) (row1 -0.815854)))
(assert (= (select D 277) (row1 -0.771541)))
(assert (= (select D 278) (row1 -0.928114)))
(assert (= (select D 279) (row1 -0.815854)))
(assert (= (select D 280) (row1 -0.390448)))
(assert (= (select D 281) (row1 -0.947809)))
(assert (= (select D 282) (row1 -0.696701)))
(assert (= (select D 283) (row1 -0.848351)))
(assert (= (select D 284) (row1 -0.997046)))
(assert (= (select D 285) (row1 -0.780404)))
(assert (= (select D 286) (row1 -0.878877)))
(assert (= (select D 287) (row1 -1.000000)))
(assert (= (select D 288) (row1 -0.720335)))
(assert (= (select D 289) (row1 -0.840473)))
(assert (= (select D 290) (row1 -0.905465)))
(assert (= (select D 291) (row1 -0.271295)))
(assert (= (select D 292) (row1 -0.779419)))
(assert (= (select D 293) (row1 -0.883801)))
(assert (= (select D 294) (row1 -0.645495)))
(assert (= (select D 295) (row1 -0.650419)))
(assert (= (select D 296) (row1 -0.805022)))
(assert (= (select D 297) (row1 -0.801083)))
(assert (= (select D 298) (row1 -0.877893)))
(assert (= (select D 299) (row1 -0.937962)))
; ======================================
; Loop-like local min–max validity (m=300)
; Property: -1.0 <= credit_duration <= 1.0
; Encoding: unrolled conjunction
; ======================================

(assert
  (and
    (and (>= (select (select D 0) 0) -1.0) (<= (select (select D 0) 0) 1.0))
    (and (>= (select (select D 1) 0) -1.0) (<= (select (select D 1) 0) 1.0))
    (and (>= (select (select D 2) 0) -1.0) (<= (select (select D 2) 0) 1.0))
    (and (>= (select (select D 3) 0) -1.0) (<= (select (select D 3) 0) 1.0))
    (and (>= (select (select D 4) 0) -1.0) (<= (select (select D 4) 0) 1.0))
    (and (>= (select (select D 5) 0) -1.0) (<= (select (select D 5) 0) 1.0))
    (and (>= (select (select D 6) 0) -1.0) (<= (select (select D 6) 0) 1.0))
    (and (>= (select (select D 7) 0) -1.0) (<= (select (select D 7) 0) 1.0))
    (and (>= (select (select D 8) 0) -1.0) (<= (select (select D 8) 0) 1.0))
    (and (>= (select (select D 9) 0) -1.0) (<= (select (select D 9) 0) 1.0))
    (and (>= (select (select D 10) 0) -1.0) (<= (select (select D 10) 0) 1.0))
    (and (>= (select (select D 11) 0) -1.0) (<= (select (select D 11) 0) 1.0))
    (and (>= (select (select D 12) 0) -1.0) (<= (select (select D 12) 0) 1.0))
    (and (>= (select (select D 13) 0) -1.0) (<= (select (select D 13) 0) 1.0))
    (and (>= (select (select D 14) 0) -1.0) (<= (select (select D 14) 0) 1.0))
    (and (>= (select (select D 15) 0) -1.0) (<= (select (select D 15) 0) 1.0))
    (and (>= (select (select D 16) 0) -1.0) (<= (select (select D 16) 0) 1.0))
    (and (>= (select (select D 17) 0) -1.0) (<= (select (select D 17) 0) 1.0))
    (and (>= (select (select D 18) 0) -1.0) (<= (select (select D 18) 0) 1.0))
    (and (>= (select (select D 19) 0) -1.0) (<= (select (select D 19) 0) 1.0))
    (and (>= (select (select D 20) 0) -1.0) (<= (select (select D 20) 0) 1.0))
    (and (>= (select (select D 21) 0) -1.0) (<= (select (select D 21) 0) 1.0))
    (and (>= (select (select D 22) 0) -1.0) (<= (select (select D 22) 0) 1.0))
    (and (>= (select (select D 23) 0) -1.0) (<= (select (select D 23) 0) 1.0))
    (and (>= (select (select D 24) 0) -1.0) (<= (select (select D 24) 0) 1.0))
    (and (>= (select (select D 25) 0) -1.0) (<= (select (select D 25) 0) 1.0))
    (and (>= (select (select D 26) 0) -1.0) (<= (select (select D 26) 0) 1.0))
    (and (>= (select (select D 27) 0) -1.0) (<= (select (select D 27) 0) 1.0))
    (and (>= (select (select D 28) 0) -1.0) (<= (select (select D 28) 0) 1.0))
    (and (>= (select (select D 29) 0) -1.0) (<= (select (select D 29) 0) 1.0))
    (and (>= (select (select D 30) 0) -1.0) (<= (select (select D 30) 0) 1.0))
    (and (>= (select (select D 31) 0) -1.0) (<= (select (select D 31) 0) 1.0))
    (and (>= (select (select D 32) 0) -1.0) (<= (select (select D 32) 0) 1.0))
    (and (>= (select (select D 33) 0) -1.0) (<= (select (select D 33) 0) 1.0))
    (and (>= (select (select D 34) 0) -1.0) (<= (select (select D 34) 0) 1.0))
    (and (>= (select (select D 35) 0) -1.0) (<= (select (select D 35) 0) 1.0))
    (and (>= (select (select D 36) 0) -1.0) (<= (select (select D 36) 0) 1.0))
    (and (>= (select (select D 37) 0) -1.0) (<= (select (select D 37) 0) 1.0))
    (and (>= (select (select D 38) 0) -1.0) (<= (select (select D 38) 0) 1.0))
    (and (>= (select (select D 39) 0) -1.0) (<= (select (select D 39) 0) 1.0))
    (and (>= (select (select D 40) 0) -1.0) (<= (select (select D 40) 0) 1.0))
    (and (>= (select (select D 41) 0) -1.0) (<= (select (select D 41) 0) 1.0))
    (and (>= (select (select D 42) 0) -1.0) (<= (select (select D 42) 0) 1.0))
    (and (>= (select (select D 43) 0) -1.0) (<= (select (select D 43) 0) 1.0))
    (and (>= (select (select D 44) 0) -1.0) (<= (select (select D 44) 0) 1.0))
    (and (>= (select (select D 45) 0) -1.0) (<= (select (select D 45) 0) 1.0))
    (and (>= (select (select D 46) 0) -1.0) (<= (select (select D 46) 0) 1.0))
    (and (>= (select (select D 47) 0) -1.0) (<= (select (select D 47) 0) 1.0))
    (and (>= (select (select D 48) 0) -1.0) (<= (select (select D 48) 0) 1.0))
    (and (>= (select (select D 49) 0) -1.0) (<= (select (select D 49) 0) 1.0))
    (and (>= (select (select D 50) 0) -1.0) (<= (select (select D 50) 0) 1.0))
    (and (>= (select (select D 51) 0) -1.0) (<= (select (select D 51) 0) 1.0))
    (and (>= (select (select D 52) 0) -1.0) (<= (select (select D 52) 0) 1.0))
    (and (>= (select (select D 53) 0) -1.0) (<= (select (select D 53) 0) 1.0))
    (and (>= (select (select D 54) 0) -1.0) (<= (select (select D 54) 0) 1.0))
    (and (>= (select (select D 55) 0) -1.0) (<= (select (select D 55) 0) 1.0))
    (and (>= (select (select D 56) 0) -1.0) (<= (select (select D 56) 0) 1.0))
    (and (>= (select (select D 57) 0) -1.0) (<= (select (select D 57) 0) 1.0))
    (and (>= (select (select D 58) 0) -1.0) (<= (select (select D 58) 0) 1.0))
    (and (>= (select (select D 59) 0) -1.0) (<= (select (select D 59) 0) 1.0))
    (and (>= (select (select D 60) 0) -1.0) (<= (select (select D 60) 0) 1.0))
    (and (>= (select (select D 61) 0) -1.0) (<= (select (select D 61) 0) 1.0))
    (and (>= (select (select D 62) 0) -1.0) (<= (select (select D 62) 0) 1.0))
    (and (>= (select (select D 63) 0) -1.0) (<= (select (select D 63) 0) 1.0))
    (and (>= (select (select D 64) 0) -1.0) (<= (select (select D 64) 0) 1.0))
    (and (>= (select (select D 65) 0) -1.0) (<= (select (select D 65) 0) 1.0))
    (and (>= (select (select D 66) 0) -1.0) (<= (select (select D 66) 0) 1.0))
    (and (>= (select (select D 67) 0) -1.0) (<= (select (select D 67) 0) 1.0))
    (and (>= (select (select D 68) 0) -1.0) (<= (select (select D 68) 0) 1.0))
    (and (>= (select (select D 69) 0) -1.0) (<= (select (select D 69) 0) 1.0))
    (and (>= (select (select D 70) 0) -1.0) (<= (select (select D 70) 0) 1.0))
    (and (>= (select (select D 71) 0) -1.0) (<= (select (select D 71) 0) 1.0))
    (and (>= (select (select D 72) 0) -1.0) (<= (select (select D 72) 0) 1.0))
    (and (>= (select (select D 73) 0) -1.0) (<= (select (select D 73) 0) 1.0))
    (and (>= (select (select D 74) 0) -1.0) (<= (select (select D 74) 0) 1.0))
    (and (>= (select (select D 75) 0) -1.0) (<= (select (select D 75) 0) 1.0))
    (and (>= (select (select D 76) 0) -1.0) (<= (select (select D 76) 0) 1.0))
    (and (>= (select (select D 77) 0) -1.0) (<= (select (select D 77) 0) 1.0))
    (and (>= (select (select D 78) 0) -1.0) (<= (select (select D 78) 0) 1.0))
    (and (>= (select (select D 79) 0) -1.0) (<= (select (select D 79) 0) 1.0))
    (and (>= (select (select D 80) 0) -1.0) (<= (select (select D 80) 0) 1.0))
    (and (>= (select (select D 81) 0) -1.0) (<= (select (select D 81) 0) 1.0))
    (and (>= (select (select D 82) 0) -1.0) (<= (select (select D 82) 0) 1.0))
    (and (>= (select (select D 83) 0) -1.0) (<= (select (select D 83) 0) 1.0))
    (and (>= (select (select D 84) 0) -1.0) (<= (select (select D 84) 0) 1.0))
    (and (>= (select (select D 85) 0) -1.0) (<= (select (select D 85) 0) 1.0))
    (and (>= (select (select D 86) 0) -1.0) (<= (select (select D 86) 0) 1.0))
    (and (>= (select (select D 87) 0) -1.0) (<= (select (select D 87) 0) 1.0))
    (and (>= (select (select D 88) 0) -1.0) (<= (select (select D 88) 0) 1.0))
    (and (>= (select (select D 89) 0) -1.0) (<= (select (select D 89) 0) 1.0))
    (and (>= (select (select D 90) 0) -1.0) (<= (select (select D 90) 0) 1.0))
    (and (>= (select (select D 91) 0) -1.0) (<= (select (select D 91) 0) 1.0))
    (and (>= (select (select D 92) 0) -1.0) (<= (select (select D 92) 0) 1.0))
    (and (>= (select (select D 93) 0) -1.0) (<= (select (select D 93) 0) 1.0))
    (and (>= (select (select D 94) 0) -1.0) (<= (select (select D 94) 0) 1.0))
    (and (>= (select (select D 95) 0) -1.0) (<= (select (select D 95) 0) 1.0))
    (and (>= (select (select D 96) 0) -1.0) (<= (select (select D 96) 0) 1.0))
    (and (>= (select (select D 97) 0) -1.0) (<= (select (select D 97) 0) 1.0))
    (and (>= (select (select D 98) 0) -1.0) (<= (select (select D 98) 0) 1.0))
    (and (>= (select (select D 99) 0) -1.0) (<= (select (select D 99) 0) 1.0))
    (and (>= (select (select D 100) 0) -1.0) (<= (select (select D 100) 0) 1.0))
    (and (>= (select (select D 101) 0) -1.0) (<= (select (select D 101) 0) 1.0))
    (and (>= (select (select D 102) 0) -1.0) (<= (select (select D 102) 0) 1.0))
    (and (>= (select (select D 103) 0) -1.0) (<= (select (select D 103) 0) 1.0))
    (and (>= (select (select D 104) 0) -1.0) (<= (select (select D 104) 0) 1.0))
    (and (>= (select (select D 105) 0) -1.0) (<= (select (select D 105) 0) 1.0))
    (and (>= (select (select D 106) 0) -1.0) (<= (select (select D 106) 0) 1.0))
    (and (>= (select (select D 107) 0) -1.0) (<= (select (select D 107) 0) 1.0))
    (and (>= (select (select D 108) 0) -1.0) (<= (select (select D 108) 0) 1.0))
    (and (>= (select (select D 109) 0) -1.0) (<= (select (select D 109) 0) 1.0))
    (and (>= (select (select D 110) 0) -1.0) (<= (select (select D 110) 0) 1.0))
    (and (>= (select (select D 111) 0) -1.0) (<= (select (select D 111) 0) 1.0))
    (and (>= (select (select D 112) 0) -1.0) (<= (select (select D 112) 0) 1.0))
    (and (>= (select (select D 113) 0) -1.0) (<= (select (select D 113) 0) 1.0))
    (and (>= (select (select D 114) 0) -1.0) (<= (select (select D 114) 0) 1.0))
    (and (>= (select (select D 115) 0) -1.0) (<= (select (select D 115) 0) 1.0))
    (and (>= (select (select D 116) 0) -1.0) (<= (select (select D 116) 0) 1.0))
    (and (>= (select (select D 117) 0) -1.0) (<= (select (select D 117) 0) 1.0))
    (and (>= (select (select D 118) 0) -1.0) (<= (select (select D 118) 0) 1.0))
    (and (>= (select (select D 119) 0) -1.0) (<= (select (select D 119) 0) 1.0))
    (and (>= (select (select D 120) 0) -1.0) (<= (select (select D 120) 0) 1.0))
    (and (>= (select (select D 121) 0) -1.0) (<= (select (select D 121) 0) 1.0))
    (and (>= (select (select D 122) 0) -1.0) (<= (select (select D 122) 0) 1.0))
    (and (>= (select (select D 123) 0) -1.0) (<= (select (select D 123) 0) 1.0))
    (and (>= (select (select D 124) 0) -1.0) (<= (select (select D 124) 0) 1.0))
    (and (>= (select (select D 125) 0) -1.0) (<= (select (select D 125) 0) 1.0))
    (and (>= (select (select D 126) 0) -1.0) (<= (select (select D 126) 0) 1.0))
    (and (>= (select (select D 127) 0) -1.0) (<= (select (select D 127) 0) 1.0))
    (and (>= (select (select D 128) 0) -1.0) (<= (select (select D 128) 0) 1.0))
    (and (>= (select (select D 129) 0) -1.0) (<= (select (select D 129) 0) 1.0))
    (and (>= (select (select D 130) 0) -1.0) (<= (select (select D 130) 0) 1.0))
    (and (>= (select (select D 131) 0) -1.0) (<= (select (select D 131) 0) 1.0))
    (and (>= (select (select D 132) 0) -1.0) (<= (select (select D 132) 0) 1.0))
    (and (>= (select (select D 133) 0) -1.0) (<= (select (select D 133) 0) 1.0))
    (and (>= (select (select D 134) 0) -1.0) (<= (select (select D 134) 0) 1.0))
    (and (>= (select (select D 135) 0) -1.0) (<= (select (select D 135) 0) 1.0))
    (and (>= (select (select D 136) 0) -1.0) (<= (select (select D 136) 0) 1.0))
    (and (>= (select (select D 137) 0) -1.0) (<= (select (select D 137) 0) 1.0))
    (and (>= (select (select D 138) 0) -1.0) (<= (select (select D 138) 0) 1.0))
    (and (>= (select (select D 139) 0) -1.0) (<= (select (select D 139) 0) 1.0))
    (and (>= (select (select D 140) 0) -1.0) (<= (select (select D 140) 0) 1.0))
    (and (>= (select (select D 141) 0) -1.0) (<= (select (select D 141) 0) 1.0))
    (and (>= (select (select D 142) 0) -1.0) (<= (select (select D 142) 0) 1.0))
    (and (>= (select (select D 143) 0) -1.0) (<= (select (select D 143) 0) 1.0))
    (and (>= (select (select D 144) 0) -1.0) (<= (select (select D 144) 0) 1.0))
    (and (>= (select (select D 145) 0) -1.0) (<= (select (select D 145) 0) 1.0))
    (and (>= (select (select D 146) 0) -1.0) (<= (select (select D 146) 0) 1.0))
    (and (>= (select (select D 147) 0) -1.0) (<= (select (select D 147) 0) 1.0))
    (and (>= (select (select D 148) 0) -1.0) (<= (select (select D 148) 0) 1.0))
    (and (>= (select (select D 149) 0) -1.0) (<= (select (select D 149) 0) 1.0))
    (and (>= (select (select D 150) 0) -1.0) (<= (select (select D 150) 0) 1.0))
    (and (>= (select (select D 151) 0) -1.0) (<= (select (select D 151) 0) 1.0))
    (and (>= (select (select D 152) 0) -1.0) (<= (select (select D 152) 0) 1.0))
    (and (>= (select (select D 153) 0) -1.0) (<= (select (select D 153) 0) 1.0))
    (and (>= (select (select D 154) 0) -1.0) (<= (select (select D 154) 0) 1.0))
    (and (>= (select (select D 155) 0) -1.0) (<= (select (select D 155) 0) 1.0))
    (and (>= (select (select D 156) 0) -1.0) (<= (select (select D 156) 0) 1.0))
    (and (>= (select (select D 157) 0) -1.0) (<= (select (select D 157) 0) 1.0))
    (and (>= (select (select D 158) 0) -1.0) (<= (select (select D 158) 0) 1.0))
    (and (>= (select (select D 159) 0) -1.0) (<= (select (select D 159) 0) 1.0))
    (and (>= (select (select D 160) 0) -1.0) (<= (select (select D 160) 0) 1.0))
    (and (>= (select (select D 161) 0) -1.0) (<= (select (select D 161) 0) 1.0))
    (and (>= (select (select D 162) 0) -1.0) (<= (select (select D 162) 0) 1.0))
    (and (>= (select (select D 163) 0) -1.0) (<= (select (select D 163) 0) 1.0))
    (and (>= (select (select D 164) 0) -1.0) (<= (select (select D 164) 0) 1.0))
    (and (>= (select (select D 165) 0) -1.0) (<= (select (select D 165) 0) 1.0))
    (and (>= (select (select D 166) 0) -1.0) (<= (select (select D 166) 0) 1.0))
    (and (>= (select (select D 167) 0) -1.0) (<= (select (select D 167) 0) 1.0))
    (and (>= (select (select D 168) 0) -1.0) (<= (select (select D 168) 0) 1.0))
    (and (>= (select (select D 169) 0) -1.0) (<= (select (select D 169) 0) 1.0))
    (and (>= (select (select D 170) 0) -1.0) (<= (select (select D 170) 0) 1.0))
    (and (>= (select (select D 171) 0) -1.0) (<= (select (select D 171) 0) 1.0))
    (and (>= (select (select D 172) 0) -1.0) (<= (select (select D 172) 0) 1.0))
    (and (>= (select (select D 173) 0) -1.0) (<= (select (select D 173) 0) 1.0))
    (and (>= (select (select D 174) 0) -1.0) (<= (select (select D 174) 0) 1.0))
    (and (>= (select (select D 175) 0) -1.0) (<= (select (select D 175) 0) 1.0))
    (and (>= (select (select D 176) 0) -1.0) (<= (select (select D 176) 0) 1.0))
    (and (>= (select (select D 177) 0) -1.0) (<= (select (select D 177) 0) 1.0))
    (and (>= (select (select D 178) 0) -1.0) (<= (select (select D 178) 0) 1.0))
    (and (>= (select (select D 179) 0) -1.0) (<= (select (select D 179) 0) 1.0))
    (and (>= (select (select D 180) 0) -1.0) (<= (select (select D 180) 0) 1.0))
    (and (>= (select (select D 181) 0) -1.0) (<= (select (select D 181) 0) 1.0))
    (and (>= (select (select D 182) 0) -1.0) (<= (select (select D 182) 0) 1.0))
    (and (>= (select (select D 183) 0) -1.0) (<= (select (select D 183) 0) 1.0))
    (and (>= (select (select D 184) 0) -1.0) (<= (select (select D 184) 0) 1.0))
    (and (>= (select (select D 185) 0) -1.0) (<= (select (select D 185) 0) 1.0))
    (and (>= (select (select D 186) 0) -1.0) (<= (select (select D 186) 0) 1.0))
    (and (>= (select (select D 187) 0) -1.0) (<= (select (select D 187) 0) 1.0))
    (and (>= (select (select D 188) 0) -1.0) (<= (select (select D 188) 0) 1.0))
    (and (>= (select (select D 189) 0) -1.0) (<= (select (select D 189) 0) 1.0))
    (and (>= (select (select D 190) 0) -1.0) (<= (select (select D 190) 0) 1.0))
    (and (>= (select (select D 191) 0) -1.0) (<= (select (select D 191) 0) 1.0))
    (and (>= (select (select D 192) 0) -1.0) (<= (select (select D 192) 0) 1.0))
    (and (>= (select (select D 193) 0) -1.0) (<= (select (select D 193) 0) 1.0))
    (and (>= (select (select D 194) 0) -1.0) (<= (select (select D 194) 0) 1.0))
    (and (>= (select (select D 195) 0) -1.0) (<= (select (select D 195) 0) 1.0))
    (and (>= (select (select D 196) 0) -1.0) (<= (select (select D 196) 0) 1.0))
    (and (>= (select (select D 197) 0) -1.0) (<= (select (select D 197) 0) 1.0))
    (and (>= (select (select D 198) 0) -1.0) (<= (select (select D 198) 0) 1.0))
    (and (>= (select (select D 199) 0) -1.0) (<= (select (select D 199) 0) 1.0))
    (and (>= (select (select D 200) 0) -1.0) (<= (select (select D 200) 0) 1.0))
    (and (>= (select (select D 201) 0) -1.0) (<= (select (select D 201) 0) 1.0))
    (and (>= (select (select D 202) 0) -1.0) (<= (select (select D 202) 0) 1.0))
    (and (>= (select (select D 203) 0) -1.0) (<= (select (select D 203) 0) 1.0))
    (and (>= (select (select D 204) 0) -1.0) (<= (select (select D 204) 0) 1.0))
    (and (>= (select (select D 205) 0) -1.0) (<= (select (select D 205) 0) 1.0))
    (and (>= (select (select D 206) 0) -1.0) (<= (select (select D 206) 0) 1.0))
    (and (>= (select (select D 207) 0) -1.0) (<= (select (select D 207) 0) 1.0))
    (and (>= (select (select D 208) 0) -1.0) (<= (select (select D 208) 0) 1.0))
    (and (>= (select (select D 209) 0) -1.0) (<= (select (select D 209) 0) 1.0))
    (and (>= (select (select D 210) 0) -1.0) (<= (select (select D 210) 0) 1.0))
    (and (>= (select (select D 211) 0) -1.0) (<= (select (select D 211) 0) 1.0))
    (and (>= (select (select D 212) 0) -1.0) (<= (select (select D 212) 0) 1.0))
    (and (>= (select (select D 213) 0) -1.0) (<= (select (select D 213) 0) 1.0))
    (and (>= (select (select D 214) 0) -1.0) (<= (select (select D 214) 0) 1.0))
    (and (>= (select (select D 215) 0) -1.0) (<= (select (select D 215) 0) 1.0))
    (and (>= (select (select D 216) 0) -1.0) (<= (select (select D 216) 0) 1.0))
    (and (>= (select (select D 217) 0) -1.0) (<= (select (select D 217) 0) 1.0))
    (and (>= (select (select D 218) 0) -1.0) (<= (select (select D 218) 0) 1.0))
    (and (>= (select (select D 219) 0) -1.0) (<= (select (select D 219) 0) 1.0))
    (and (>= (select (select D 220) 0) -1.0) (<= (select (select D 220) 0) 1.0))
    (and (>= (select (select D 221) 0) -1.0) (<= (select (select D 221) 0) 1.0))
    (and (>= (select (select D 222) 0) -1.0) (<= (select (select D 222) 0) 1.0))
    (and (>= (select (select D 223) 0) -1.0) (<= (select (select D 223) 0) 1.0))
    (and (>= (select (select D 224) 0) -1.0) (<= (select (select D 224) 0) 1.0))
    (and (>= (select (select D 225) 0) -1.0) (<= (select (select D 225) 0) 1.0))
    (and (>= (select (select D 226) 0) -1.0) (<= (select (select D 226) 0) 1.0))
    (and (>= (select (select D 227) 0) -1.0) (<= (select (select D 227) 0) 1.0))
    (and (>= (select (select D 228) 0) -1.0) (<= (select (select D 228) 0) 1.0))
    (and (>= (select (select D 229) 0) -1.0) (<= (select (select D 229) 0) 1.0))
    (and (>= (select (select D 230) 0) -1.0) (<= (select (select D 230) 0) 1.0))
    (and (>= (select (select D 231) 0) -1.0) (<= (select (select D 231) 0) 1.0))
    (and (>= (select (select D 232) 0) -1.0) (<= (select (select D 232) 0) 1.0))
    (and (>= (select (select D 233) 0) -1.0) (<= (select (select D 233) 0) 1.0))
    (and (>= (select (select D 234) 0) -1.0) (<= (select (select D 234) 0) 1.0))
    (and (>= (select (select D 235) 0) -1.0) (<= (select (select D 235) 0) 1.0))
    (and (>= (select (select D 236) 0) -1.0) (<= (select (select D 236) 0) 1.0))
    (and (>= (select (select D 237) 0) -1.0) (<= (select (select D 237) 0) 1.0))
    (and (>= (select (select D 238) 0) -1.0) (<= (select (select D 238) 0) 1.0))
    (and (>= (select (select D 239) 0) -1.0) (<= (select (select D 239) 0) 1.0))
    (and (>= (select (select D 240) 0) -1.0) (<= (select (select D 240) 0) 1.0))
    (and (>= (select (select D 241) 0) -1.0) (<= (select (select D 241) 0) 1.0))
    (and (>= (select (select D 242) 0) -1.0) (<= (select (select D 242) 0) 1.0))
    (and (>= (select (select D 243) 0) -1.0) (<= (select (select D 243) 0) 1.0))
    (and (>= (select (select D 244) 0) -1.0) (<= (select (select D 244) 0) 1.0))
    (and (>= (select (select D 245) 0) -1.0) (<= (select (select D 245) 0) 1.0))
    (and (>= (select (select D 246) 0) -1.0) (<= (select (select D 246) 0) 1.0))
    (and (>= (select (select D 247) 0) -1.0) (<= (select (select D 247) 0) 1.0))
    (and (>= (select (select D 248) 0) -1.0) (<= (select (select D 248) 0) 1.0))
    (and (>= (select (select D 249) 0) -1.0) (<= (select (select D 249) 0) 1.0))
    (and (>= (select (select D 250) 0) -1.0) (<= (select (select D 250) 0) 1.0))
    (and (>= (select (select D 251) 0) -1.0) (<= (select (select D 251) 0) 1.0))
    (and (>= (select (select D 252) 0) -1.0) (<= (select (select D 252) 0) 1.0))
    (and (>= (select (select D 253) 0) -1.0) (<= (select (select D 253) 0) 1.0))
    (and (>= (select (select D 254) 0) -1.0) (<= (select (select D 254) 0) 1.0))
    (and (>= (select (select D 255) 0) -1.0) (<= (select (select D 255) 0) 1.0))
    (and (>= (select (select D 256) 0) -1.0) (<= (select (select D 256) 0) 1.0))
    (and (>= (select (select D 257) 0) -1.0) (<= (select (select D 257) 0) 1.0))
    (and (>= (select (select D 258) 0) -1.0) (<= (select (select D 258) 0) 1.0))
    (and (>= (select (select D 259) 0) -1.0) (<= (select (select D 259) 0) 1.0))
    (and (>= (select (select D 260) 0) -1.0) (<= (select (select D 260) 0) 1.0))
    (and (>= (select (select D 261) 0) -1.0) (<= (select (select D 261) 0) 1.0))
    (and (>= (select (select D 262) 0) -1.0) (<= (select (select D 262) 0) 1.0))
    (and (>= (select (select D 263) 0) -1.0) (<= (select (select D 263) 0) 1.0))
    (and (>= (select (select D 264) 0) -1.0) (<= (select (select D 264) 0) 1.0))
    (and (>= (select (select D 265) 0) -1.0) (<= (select (select D 265) 0) 1.0))
    (and (>= (select (select D 266) 0) -1.0) (<= (select (select D 266) 0) 1.0))
    (and (>= (select (select D 267) 0) -1.0) (<= (select (select D 267) 0) 1.0))
    (and (>= (select (select D 268) 0) -1.0) (<= (select (select D 268) 0) 1.0))
    (and (>= (select (select D 269) 0) -1.0) (<= (select (select D 269) 0) 1.0))
    (and (>= (select (select D 270) 0) -1.0) (<= (select (select D 270) 0) 1.0))
    (and (>= (select (select D 271) 0) -1.0) (<= (select (select D 271) 0) 1.0))
    (and (>= (select (select D 272) 0) -1.0) (<= (select (select D 272) 0) 1.0))
    (and (>= (select (select D 273) 0) -1.0) (<= (select (select D 273) 0) 1.0))
    (and (>= (select (select D 274) 0) -1.0) (<= (select (select D 274) 0) 1.0))
    (and (>= (select (select D 275) 0) -1.0) (<= (select (select D 275) 0) 1.0))
    (and (>= (select (select D 276) 0) -1.0) (<= (select (select D 276) 0) 1.0))
    (and (>= (select (select D 277) 0) -1.0) (<= (select (select D 277) 0) 1.0))
    (and (>= (select (select D 278) 0) -1.0) (<= (select (select D 278) 0) 1.0))
    (and (>= (select (select D 279) 0) -1.0) (<= (select (select D 279) 0) 1.0))
    (and (>= (select (select D 280) 0) -1.0) (<= (select (select D 280) 0) 1.0))
    (and (>= (select (select D 281) 0) -1.0) (<= (select (select D 281) 0) 1.0))
    (and (>= (select (select D 282) 0) -1.0) (<= (select (select D 282) 0) 1.0))
    (and (>= (select (select D 283) 0) -1.0) (<= (select (select D 283) 0) 1.0))
    (and (>= (select (select D 284) 0) -1.0) (<= (select (select D 284) 0) 1.0))
    (and (>= (select (select D 285) 0) -1.0) (<= (select (select D 285) 0) 1.0))
    (and (>= (select (select D 286) 0) -1.0) (<= (select (select D 286) 0) 1.0))
    (and (>= (select (select D 287) 0) -1.0) (<= (select (select D 287) 0) 1.0))
    (and (>= (select (select D 288) 0) -1.0) (<= (select (select D 288) 0) 1.0))
    (and (>= (select (select D 289) 0) -1.0) (<= (select (select D 289) 0) 1.0))
    (and (>= (select (select D 290) 0) -1.0) (<= (select (select D 290) 0) 1.0))
    (and (>= (select (select D 291) 0) -1.0) (<= (select (select D 291) 0) 1.0))
    (and (>= (select (select D 292) 0) -1.0) (<= (select (select D 292) 0) 1.0))
    (and (>= (select (select D 293) 0) -1.0) (<= (select (select D 293) 0) 1.0))
    (and (>= (select (select D 294) 0) -1.0) (<= (select (select D 294) 0) 1.0))
    (and (>= (select (select D 295) 0) -1.0) (<= (select (select D 295) 0) 1.0))
    (and (>= (select (select D 296) 0) -1.0) (<= (select (select D 296) 0) 1.0))
    (and (>= (select (select D 297) 0) -1.0) (<= (select (select D 297) 0) 1.0))
    (and (>= (select (select D 298) 0) -1.0) (<= (select (select D 298) 0) 1.0))
    (and (>= (select (select D 299) 0) -1.0) (<= (select (select D 299) 0) 1.0))
  )
)


(check-sat)